135
100000
1380
1778
20040
2685
20002
2271
1874
13617
891
7127
2795
9224
23092
1869
5077
6370
16371
2470
1804
15928
6060
10
6191
8486
12683
8549
18645
1273
10736
5760
5295
23665
17568
5908
9095
20590
14618
18947
18175
2824
2324
5611
17900
18736
23485
18577
12772
5695
5109
5202
22886
21822
16484
14758
13105
3450
13155
17738
16360
5926
4102
24392
16028
1821
21859
5413
3841
23441
2007
7305
16293
19649
11481
16764
18346
16724
9495
8853
380
2448
24349
14929
24897
7597
1990
1269
3668
21917
4781
23893
3582
21869
9156
6122
814
2535
9210
4639
24868
9715
3400
898
13322
9113
9639
4933
17414
8733
24377
18248
8589
19873
20140
15171
742
15265
5969
13012
6469
18074
16888
6067
17223
4585
23253
1528
1438
14693
1106
2704
15777
23975
22767
4343
24992
